array [1..2] of int: X_INTRODUCED_10_ = [1,-1];
array [1..3] of int: X_INTRODUCED_13_ = [1,1,1];
var 1..9: X_INTRODUCED_0_;
var 1..9: X_INTRODUCED_1_;
var 1..9: X_INTRODUCED_2_;
var 1..9: X_INTRODUCED_3_;
var 1..9: X_INTRODUCED_4_;
var 1..9: X_INTRODUCED_5_;
var 1..9: X_INTRODUCED_6_;
var 1..9: X_INTRODUCED_7_;
var 1..9: X_INTRODUCED_8_;
array [1..9] of var int: Magic:: output_array([1..3,1..3]) = [X_INTRODUCED_0_,X_INTRODUCED_1_,X_INTRODUCED_2_,X_INTRODUCED_3_,X_INTRODUCED_4_,X_INTRODUCED_5_,X_INTRODUCED_6_,X_INTRODUCED_7_,X_INTRODUCED_8_];
array [1..4] of var int: X_INTRODUCED_26_ ::var_is_introduced  = [X_INTRODUCED_0_,X_INTRODUCED_2_,X_INTRODUCED_6_,X_INTRODUCED_8_];
constraint int_lin_ne(X_INTRODUCED_10_,[X_INTRODUCED_0_,X_INTRODUCED_1_],0);
constraint int_lin_ne(X_INTRODUCED_10_,[X_INTRODUCED_0_,X_INTRODUCED_2_],0);
constraint int_lin_ne(X_INTRODUCED_10_,[X_INTRODUCED_0_,X_INTRODUCED_3_],0);
constraint int_lin_ne(X_INTRODUCED_10_,[X_INTRODUCED_0_,X_INTRODUCED_4_],0);
constraint int_lin_ne(X_INTRODUCED_10_,[X_INTRODUCED_0_,X_INTRODUCED_5_],0);
constraint int_lin_ne(X_INTRODUCED_10_,[X_INTRODUCED_0_,X_INTRODUCED_6_],0);
constraint int_lin_ne(X_INTRODUCED_10_,[X_INTRODUCED_0_,X_INTRODUCED_7_],0);
constraint int_lin_ne(X_INTRODUCED_10_,[X_INTRODUCED_0_,X_INTRODUCED_8_],0);
constraint int_lin_ne(X_INTRODUCED_10_,[X_INTRODUCED_1_,X_INTRODUCED_2_],0);
constraint int_lin_ne(X_INTRODUCED_10_,[X_INTRODUCED_1_,X_INTRODUCED_3_],0);
constraint int_lin_ne(X_INTRODUCED_10_,[X_INTRODUCED_1_,X_INTRODUCED_4_],0);
constraint int_lin_ne(X_INTRODUCED_10_,[X_INTRODUCED_1_,X_INTRODUCED_5_],0);
constraint int_lin_ne(X_INTRODUCED_10_,[X_INTRODUCED_1_,X_INTRODUCED_6_],0);
constraint int_lin_ne(X_INTRODUCED_10_,[X_INTRODUCED_1_,X_INTRODUCED_7_],0);
constraint int_lin_ne(X_INTRODUCED_10_,[X_INTRODUCED_1_,X_INTRODUCED_8_],0);
constraint int_lin_ne(X_INTRODUCED_10_,[X_INTRODUCED_2_,X_INTRODUCED_3_],0);
constraint int_lin_ne(X_INTRODUCED_10_,[X_INTRODUCED_2_,X_INTRODUCED_4_],0);
constraint int_lin_ne(X_INTRODUCED_10_,[X_INTRODUCED_2_,X_INTRODUCED_5_],0);
constraint int_lin_ne(X_INTRODUCED_10_,[X_INTRODUCED_2_,X_INTRODUCED_6_],0);
constraint int_lin_ne(X_INTRODUCED_10_,[X_INTRODUCED_2_,X_INTRODUCED_7_],0);
constraint int_lin_ne(X_INTRODUCED_10_,[X_INTRODUCED_2_,X_INTRODUCED_8_],0);
constraint int_lin_ne(X_INTRODUCED_10_,[X_INTRODUCED_3_,X_INTRODUCED_4_],0);
constraint int_lin_ne(X_INTRODUCED_10_,[X_INTRODUCED_3_,X_INTRODUCED_5_],0);
constraint int_lin_ne(X_INTRODUCED_10_,[X_INTRODUCED_3_,X_INTRODUCED_6_],0);
constraint int_lin_ne(X_INTRODUCED_10_,[X_INTRODUCED_3_,X_INTRODUCED_7_],0);
constraint int_lin_ne(X_INTRODUCED_10_,[X_INTRODUCED_3_,X_INTRODUCED_8_],0);
constraint int_lin_ne(X_INTRODUCED_10_,[X_INTRODUCED_4_,X_INTRODUCED_5_],0);
constraint int_lin_ne(X_INTRODUCED_10_,[X_INTRODUCED_4_,X_INTRODUCED_6_],0);
constraint int_lin_ne(X_INTRODUCED_10_,[X_INTRODUCED_4_,X_INTRODUCED_7_],0);
constraint int_lin_ne(X_INTRODUCED_10_,[X_INTRODUCED_4_,X_INTRODUCED_8_],0);
constraint int_lin_ne(X_INTRODUCED_10_,[X_INTRODUCED_5_,X_INTRODUCED_6_],0);
constraint int_lin_ne(X_INTRODUCED_10_,[X_INTRODUCED_5_,X_INTRODUCED_7_],0);
constraint int_lin_ne(X_INTRODUCED_10_,[X_INTRODUCED_5_,X_INTRODUCED_8_],0);
constraint int_lin_ne(X_INTRODUCED_10_,[X_INTRODUCED_6_,X_INTRODUCED_7_],0);
constraint int_lin_ne(X_INTRODUCED_10_,[X_INTRODUCED_6_,X_INTRODUCED_8_],0);
constraint int_lin_ne(X_INTRODUCED_10_,[X_INTRODUCED_7_,X_INTRODUCED_8_],0);
constraint int_lin_eq(X_INTRODUCED_13_,[X_INTRODUCED_0_,X_INTRODUCED_1_,X_INTRODUCED_2_],15);
constraint int_lin_eq(X_INTRODUCED_13_,[X_INTRODUCED_3_,X_INTRODUCED_4_,X_INTRODUCED_5_],15);
constraint int_lin_eq(X_INTRODUCED_13_,[X_INTRODUCED_6_,X_INTRODUCED_7_,X_INTRODUCED_8_],15);
constraint int_lin_eq(X_INTRODUCED_13_,[X_INTRODUCED_0_,X_INTRODUCED_3_,X_INTRODUCED_6_],15);
constraint int_lin_eq(X_INTRODUCED_13_,[X_INTRODUCED_1_,X_INTRODUCED_4_,X_INTRODUCED_7_],15);
constraint int_lin_eq(X_INTRODUCED_13_,[X_INTRODUCED_2_,X_INTRODUCED_5_,X_INTRODUCED_8_],15);
constraint int_lin_eq(X_INTRODUCED_13_,[X_INTRODUCED_0_,X_INTRODUCED_4_,X_INTRODUCED_8_],15);
constraint int_lin_eq(X_INTRODUCED_13_,[X_INTRODUCED_6_,X_INTRODUCED_4_,X_INTRODUCED_2_],15);
solve :: seq_search([int_search(X_INTRODUCED_26_,input_order,indomain_split,complete),int_search(Magic,occurrence,indomain_split,complete)]) satisfy;
